TCS_Benchmarks/redos_fix/snort3_output_distinct_3617_3616_8_0.txt
([^
]*)([A-Za-z]+)
([^
]*)(\/[cC][oO][nN][tT][aA][cC][tT][sS]\/[A-Za-z]+\.)([A-Za-z]+)